
  16    0


   0   7 2 3 4 5 6 14 15 
   4   4 13 12 11 8 
   2   2 10 8 
   8   1 9 
   6   1 7 
   5   1 7 
   4   1 16
  10   1 16
   5   1 16
   7   1 16
   8   1 16
   7   1 16
  10   1 16
  10   1 16
   8   1 16
   0   0 
